(set-info :smt-lib-version 2.6)
(set-logic QF_FP)
(set-info :source |
Generated by: Chenqi Cui
Generated on: 2025-12-13
Generator: AutoSMTGen
Application: Generating SMT constraints with small solution spaces to make them challenging for SMT solvers
Target solver: Z3, CVC5, Bitwuzla
|)
(set-info :license "https://creativecommons.org/licenses/by/4.0/")
(set-info :category "industrial")
(set-info :status sat)
; benchmark generated from python API

(declare-fun x9 () (_ FloatingPoint 11 53))
(declare-fun x8 () (_ FloatingPoint 11 53))
(declare-fun x7 () (_ FloatingPoint 11 53))
(declare-fun x6 () (_ FloatingPoint 11 53))
(declare-fun x5 () (_ FloatingPoint 11 53))
(declare-fun x4 () (_ FloatingPoint 11 53))
(declare-fun x3 () (_ FloatingPoint 11 53))
(declare-fun x2 () (_ FloatingPoint 11 53))
(declare-fun x1 () (_ FloatingPoint 11 53))
(declare-fun x0 () (_ FloatingPoint 11 53))
(assert
 (let ((?x20 (fp.add roundNearestTiesToEven (fp.mul roundNearestTiesToEven (fp #b0 #b10000000010 #xf9eedb9bfaeb5) x0) (fp.mul roundNearestTiesToEven (fp #b1 #b10000000011 #xb603f979b3f20) x1))))
 (let ((?x23 (fp.add roundNearestTiesToEven ?x20 (fp.mul roundNearestTiesToEven (fp #b0 #b10000000100 #x75cc4f261d036) x2))))
 (let ((?x26 (fp.add roundNearestTiesToEven ?x23 (fp.mul roundNearestTiesToEven (fp #b1 #b10000000010 #x4c28217de5216) x3))))
 (let ((?x29 (fp.add roundNearestTiesToEven ?x26 (fp.mul roundNearestTiesToEven (fp #b1 #b10000000001 #xf0e529bc84bad) x4))))
 (let ((?x32 (fp.add roundNearestTiesToEven ?x29 (fp.mul roundNearestTiesToEven (fp #b1 #b10000000101 #x67f175fd2870c) x5))))
 (let ((?x35 (fp.add roundNearestTiesToEven ?x32 (fp.mul roundNearestTiesToEven (fp #b0 #b10000000011 #xdffd69f62f7fd) x6))))
 (let ((?x38 (fp.add roundNearestTiesToEven ?x35 (fp.mul roundNearestTiesToEven (fp #b1 #b10000000100 #x1d9f88c48b856) x7))))
 (let ((?x41 (fp.add roundNearestTiesToEven ?x38 (fp.mul roundNearestTiesToEven (fp #b1 #b10000000101 #x8cb5568804ab6) x8))))
 (let ((?x44 (fp.add roundNearestTiesToEven ?x41 (fp.mul roundNearestTiesToEven (fp #b1 #b10000000010 #x4faf31a3277a7) x9))))
 (fp.leq ?x44 (fp #b0 #b10000000101 #x3ed56b746250a))))))))))))
(assert
 (let ((?x68 (fp.add roundNearestTiesToEven (fp.mul roundNearestTiesToEven (fp #b0 #b10000000100 #xb18a44d593e8d) x0) (fp.mul roundNearestTiesToEven (fp #b0 #b10000000101 #x340b9bd1fa8e3) x1))))
 (let ((?x71 (fp.add roundNearestTiesToEven ?x68 (fp.mul roundNearestTiesToEven (fp #b1 #b10000000101 #x6a5162719dc02) x2))))
 (let ((?x74 (fp.add roundNearestTiesToEven ?x71 (fp.mul roundNearestTiesToEven (fp #b0 #b10000000100 #x01467edd67e8e) x3))))
 (let ((?x77 (fp.add roundNearestTiesToEven ?x74 (fp.mul roundNearestTiesToEven (fp #b0 #b10000000101 #x2fb779f746e98) x4))))
 (let ((?x80 (fp.add roundNearestTiesToEven ?x77 (fp.mul roundNearestTiesToEven (fp #b1 #b10000000100 #xff1a17dc73c01) x5))))
 (let ((?x83 (fp.add roundNearestTiesToEven ?x80 (fp.mul roundNearestTiesToEven (fp #b0 #b10000000100 #xbd96e8faa6b73) x6))))
 (let ((?x86 (fp.add roundNearestTiesToEven ?x83 (fp.mul roundNearestTiesToEven (fp #b0 #b10000000100 #x25f6d99f67d27) x7))))
 (let ((?x89 (fp.add roundNearestTiesToEven ?x86 (fp.mul roundNearestTiesToEven (fp #b1 #b01111111101 #x69b100c885ef3) x8))))
 (let ((?x92 (fp.add roundNearestTiesToEven ?x89 (fp.mul roundNearestTiesToEven (fp #b1 #b10000000100 #x74bade18a4e63) x9))))
 (fp.leq ?x92 (fp #b1 #b10000000101 #x10c794430d7e1))))))))))))
(assert
 (let ((?x99 (fp.add roundNearestTiesToEven (fp.mul roundNearestTiesToEven (fp #b0 #b10000000101 #x1ef026d9d0934) x0) (fp.mul roundNearestTiesToEven (fp #b0 #b10000000101 #x746c9d9c0b9b9) x1))))
 (let ((?x102 (fp.add roundNearestTiesToEven ?x99 (fp.mul roundNearestTiesToEven (fp #b1 #b10000000101 #xc214449180fb0) x2))))
 (let ((?x105 (fp.add roundNearestTiesToEven ?x102 (fp.mul roundNearestTiesToEven (fp #b1 #b10000000100 #xfa33828ba854c) x3))))
 (let ((?x108 (fp.add roundNearestTiesToEven ?x105 (fp.mul roundNearestTiesToEven (fp #b0 #b10000000100 #x5492d1efd5738) x4))))
 (let ((?x111 (fp.add roundNearestTiesToEven ?x108 (fp.mul roundNearestTiesToEven (fp #b0 #b10000000101 #x734191f239c7e) x5))))
 (let ((?x114 (fp.add roundNearestTiesToEven ?x111 (fp.mul roundNearestTiesToEven (fp #b0 #b10000000100 #x441ffc649048f) x6))))
 (let ((?x117 (fp.add roundNearestTiesToEven ?x114 (fp.mul roundNearestTiesToEven (fp #b1 #b10000000011 #x737c5a2fa7ae5) x7))))
 (let ((?x120 (fp.add roundNearestTiesToEven ?x117 (fp.mul roundNearestTiesToEven (fp #b1 #b10000000100 #xce9353d386d9b) x8))))
 (let ((?x123 (fp.add roundNearestTiesToEven ?x120 (fp.mul roundNearestTiesToEven (fp #b0 #b10000000101 #x59b2eda71b155) x9))))
 (fp.leq ?x123 (fp #b0 #b10000000100 #x507b1caeda862))))))))))))
(assert
 (let ((?x130 (fp.add roundNearestTiesToEven (fp.mul roundNearestTiesToEven (fp #b0 #b10000000100 #xa5d4c14d29e21) x0) (fp.mul roundNearestTiesToEven (fp #b1 #b10000000010 #xe0db8b2c02854) x1))))
 (let ((?x133 (fp.add roundNearestTiesToEven ?x130 (fp.mul roundNearestTiesToEven (fp #b0 #b10000000101 #x06e6769a13bf2) x2))))
 (let ((?x136 (fp.add roundNearestTiesToEven ?x133 (fp.mul roundNearestTiesToEven (fp #b1 #b10000000100 #xea1d112899c8c) x3))))
 (let ((?x139 (fp.add roundNearestTiesToEven ?x136 (fp.mul roundNearestTiesToEven (fp #b0 #b10000000100 #xfcb16070caa97) x4))))
 (let ((?x142 (fp.add roundNearestTiesToEven ?x139 (fp.mul roundNearestTiesToEven (fp #b1 #b10000000011 #x264003ece1ea2) x5))))
 (let ((?x145 (fp.add roundNearestTiesToEven ?x142 (fp.mul roundNearestTiesToEven (fp #b0 #b10000000010 #x947f6cded03a0) x6))))
 (let ((?x148 (fp.add roundNearestTiesToEven ?x145 (fp.mul roundNearestTiesToEven (fp #b1 #b10000000100 #x77edd1ba0b82d) x7))))
 (let ((?x151 (fp.add roundNearestTiesToEven ?x148 (fp.mul roundNearestTiesToEven (fp #b1 #b10000000010 #xc935dd02cc22b) x8))))
 (let ((?x154 (fp.add roundNearestTiesToEven ?x151 (fp.mul roundNearestTiesToEven (fp #b1 #b10000000101 #xc93c0a0653495) x9))))
 (fp.leq ?x154 (fp #b1 #b10000000100 #x5b589d165fe7f))))))))))))
(assert
 (let ((?x161 (fp.add roundNearestTiesToEven (fp.mul roundNearestTiesToEven (fp #b1 #b10000000100 #x5bc4856a8696c) x0) (fp.mul roundNearestTiesToEven (fp #b1 #b10000000011 #x91a9aae5bc6ca) x1))))
 (let ((?x164 (fp.add roundNearestTiesToEven ?x161 (fp.mul roundNearestTiesToEven (fp #b0 #b10000000100 #x0269cfc156ebe) x2))))
 (let ((?x167 (fp.add roundNearestTiesToEven ?x164 (fp.mul roundNearestTiesToEven (fp #b1 #b10000000011 #xe9e02dc2b0c14) x3))))
 (let ((?x170 (fp.add roundNearestTiesToEven ?x167 (fp.mul roundNearestTiesToEven (fp #b0 #b10000000101 #x0f01a67098a78) x4))))
 (let ((?x173 (fp.add roundNearestTiesToEven ?x170 (fp.mul roundNearestTiesToEven (fp #b0 #b10000000101 #x451a277140f01) x5))))
 (let ((?x176 (fp.add roundNearestTiesToEven ?x173 (fp.mul roundNearestTiesToEven (fp #b0 #b10000000100 #x44d1a7c2c542c) x6))))
 (let ((?x179 (fp.add roundNearestTiesToEven ?x176 (fp.mul roundNearestTiesToEven (fp #b0 #b10000000101 #x0548ba78a1199) x7))))
 (let ((?x182 (fp.add roundNearestTiesToEven ?x179 (fp.mul roundNearestTiesToEven (fp #b0 #b10000000101 #x1ae65808e0ea2) x8))))
 (let ((?x185 (fp.add roundNearestTiesToEven ?x182 (fp.mul roundNearestTiesToEven (fp #b1 #b10000000101 #x5016e085b3919) x9))))
 (fp.leq ?x185 (fp #b0 #b10000000010 #x17d12ed48b7b0))))))))))))
(assert
 (let ((?x192 (fp.add roundNearestTiesToEven (fp.mul roundNearestTiesToEven (fp #b0 #b10000000101 #x7eb4a1af45de6) x0) (fp.mul roundNearestTiesToEven (fp #b1 #b10000000010 #x80b7d55460306) x1))))
 (let ((?x195 (fp.add roundNearestTiesToEven ?x192 (fp.mul roundNearestTiesToEven (fp #b0 #b10000000101 #x26045cc21ce2e) x2))))
 (let ((?x198 (fp.add roundNearestTiesToEven ?x195 (fp.mul roundNearestTiesToEven (fp #b1 #b10000000100 #x8ab2e1806aea2) x3))))
 (let ((?x201 (fp.add roundNearestTiesToEven ?x198 (fp.mul roundNearestTiesToEven (fp #b1 #b10000000010 #xf882a168f8f3f) x4))))
 (let ((?x204 (fp.add roundNearestTiesToEven ?x201 (fp.mul roundNearestTiesToEven (fp #b0 #b10000000100 #x7c1fb01a99e4d) x5))))
 (let ((?x207 (fp.add roundNearestTiesToEven ?x204 (fp.mul roundNearestTiesToEven (fp #b0 #b10000000101 #x84ec3ba7a33a7) x6))))
 (let ((?x210 (fp.add roundNearestTiesToEven ?x207 (fp.mul roundNearestTiesToEven (fp #b1 #b10000000101 #x8fef8a6b884f2) x7))))
 (let ((?x213 (fp.add roundNearestTiesToEven ?x210 (fp.mul roundNearestTiesToEven (fp #b1 #b10000000011 #xfafcb7ead1d64) x8))))
 (let ((?x216 (fp.add roundNearestTiesToEven ?x213 (fp.mul roundNearestTiesToEven (fp #b1 #b10000000011 #xad61360a01d93) x9))))
 (fp.leq ?x216 (fp #b0 #b10000000101 #x67bb632775450))))))))))))
(assert
 (let ((?x223 (fp.add roundNearestTiesToEven (fp.mul roundNearestTiesToEven (fp #b1 #b10000000100 #x3c2e64d4b03a6) x0) (fp.mul roundNearestTiesToEven (fp #b0 #b10000000101 #x88f44ee34bf11) x1))))
 (let ((?x226 (fp.add roundNearestTiesToEven ?x223 (fp.mul roundNearestTiesToEven (fp #b1 #b10000000011 #x23a540d44e6fb) x2))))
 (let ((?x229 (fp.add roundNearestTiesToEven ?x226 (fp.mul roundNearestTiesToEven (fp #b0 #b10000000010 #x6018186a52035) x3))))
 (let ((?x232 (fp.add roundNearestTiesToEven ?x229 (fp.mul roundNearestTiesToEven (fp #b1 #b10000000101 #xb4790c4b4fac6) x4))))
 (let ((?x235 (fp.add roundNearestTiesToEven ?x232 (fp.mul roundNearestTiesToEven (fp #b0 #b10000000101 #x00c89898dd513) x5))))
 (let ((?x238 (fp.add roundNearestTiesToEven ?x235 (fp.mul roundNearestTiesToEven (fp #b1 #b10000000101 #xbeeaee4d9341a) x6))))
 (let ((?x241 (fp.add roundNearestTiesToEven ?x238 (fp.mul roundNearestTiesToEven (fp #b0 #b10000000101 #x670969761723c) x7))))
 (let ((?x244 (fp.add roundNearestTiesToEven ?x241 (fp.mul roundNearestTiesToEven (fp #b0 #b10000000011 #x25ae444fe96ef) x8))))
 (let ((?x247 (fp.add roundNearestTiesToEven ?x244 (fp.mul roundNearestTiesToEven (fp #b0 #b10000000100 #xfd235a574a439) x9))))
 (fp.leq ?x247 (fp #b0 #b10000000010 #x13eb7b215f837))))))))))))
(assert
 (let ((?x254 (fp.add roundNearestTiesToEven (fp.mul roundNearestTiesToEven (fp #b1 #b10000000101 #x455458873b1ee) x0) (fp.mul roundNearestTiesToEven (fp #b0 #b10000000101 #x7c52d32ad24c9) x1))))
 (let ((?x257 (fp.add roundNearestTiesToEven ?x254 (fp.mul roundNearestTiesToEven (fp #b0 #b10000000100 #x8afdcc66df545) x2))))
 (let ((?x260 (fp.add roundNearestTiesToEven ?x257 (fp.mul roundNearestTiesToEven (fp #b0 #b10000000101 #x71fd05a57305a) x3))))
 (let ((?x263 (fp.add roundNearestTiesToEven ?x260 (fp.mul roundNearestTiesToEven (fp #b0 #b10000000101 #x3f23b2756a322) x4))))
 (let ((?x266 (fp.add roundNearestTiesToEven ?x263 (fp.mul roundNearestTiesToEven (fp #b0 #b10000000101 #x0a807a9fe1061) x5))))
 (let ((?x269 (fp.add roundNearestTiesToEven ?x266 (fp.mul roundNearestTiesToEven (fp #b0 #b10000000100 #x519141e4e689e) x6))))
 (let ((?x272 (fp.add roundNearestTiesToEven ?x269 (fp.mul roundNearestTiesToEven (fp #b1 #b10000000100 #x4faacf500413d) x7))))
 (let ((?x275 (fp.add roundNearestTiesToEven ?x272 (fp.mul roundNearestTiesToEven (fp #b1 #b10000000100 #x721d2da1414f8) x8))))
 (let ((?x278 (fp.add roundNearestTiesToEven ?x275 (fp.mul roundNearestTiesToEven (fp #b1 #b10000000100 #x2c303f74d81dc) x9))))
 (fp.leq ?x278 (fp #b0 #b10000000010 #x081df3bf07021))))))))))))
(assert
 (let ((?x285 (fp.add roundNearestTiesToEven (fp.mul roundNearestTiesToEven (fp #b0 #b10000000100 #x9537c025f956c) x0) (fp.mul roundNearestTiesToEven (fp #b1 #b10000000101 #x87a3e5747eaad) x1))))
 (let ((?x288 (fp.add roundNearestTiesToEven ?x285 (fp.mul roundNearestTiesToEven (fp #b1 #b10000000000 #xbb91e89befa8e) x2))))
 (let ((?x291 (fp.add roundNearestTiesToEven ?x288 (fp.mul roundNearestTiesToEven (fp #b0 #b10000000101 #x388c2639a5454) x3))))
 (let ((?x294 (fp.add roundNearestTiesToEven ?x291 (fp.mul roundNearestTiesToEven (fp #b0 #b10000000100 #xb537da2a15417) x4))))
 (let ((?x297 (fp.add roundNearestTiesToEven ?x294 (fp.mul roundNearestTiesToEven (fp #b1 #b10000000011 #xf2f6be8bd1608) x5))))
 (let ((?x300 (fp.add roundNearestTiesToEven ?x297 (fp.mul roundNearestTiesToEven (fp #b0 #b10000000100 #x94fb5c320a2af) x6))))
 (let ((?x303 (fp.add roundNearestTiesToEven ?x300 (fp.mul roundNearestTiesToEven (fp #b1 #b10000000101 #x583ab2459293b) x7))))
 (let ((?x306 (fp.add roundNearestTiesToEven ?x303 (fp.mul roundNearestTiesToEven (fp #b0 #b10000000101 #x19d196ad7cb51) x8))))
 (let ((?x309 (fp.add roundNearestTiesToEven ?x306 (fp.mul roundNearestTiesToEven (fp #b1 #b10000000101 #xa66adef9a64a6) x9))))
 (fp.leq ?x309 (fp #b1 #b10000000010 #xacf4ab1b2ce53))))))))))))
(assert
 (let ((?x316 (fp.add roundNearestTiesToEven (fp.mul roundNearestTiesToEven (fp #b0 #b10000000001 #x5d6bd661257b8) x0) (fp.mul roundNearestTiesToEven (fp #b1 #b10000000101 #x5b62647037a80) x1))))
 (let ((?x319 (fp.add roundNearestTiesToEven ?x316 (fp.mul roundNearestTiesToEven (fp #b1 #b10000000100 #xacd6b3b0fd119) x2))))
 (let ((?x322 (fp.add roundNearestTiesToEven ?x319 (fp.mul roundNearestTiesToEven (fp #b1 #b10000000100 #x7d970f58496ad) x3))))
 (let ((?x325 (fp.add roundNearestTiesToEven ?x322 (fp.mul roundNearestTiesToEven (fp #b0 #b10000000011 #xf57585af7e6a3) x4))))
 (let ((?x328 (fp.add roundNearestTiesToEven ?x325 (fp.mul roundNearestTiesToEven (fp #b1 #b10000000101 #x3792a9e78dbc9) x5))))
 (let ((?x331 (fp.add roundNearestTiesToEven ?x328 (fp.mul roundNearestTiesToEven (fp #b0 #b10000000011 #x315626a1165e3) x6))))
 (let ((?x334 (fp.add roundNearestTiesToEven ?x331 (fp.mul roundNearestTiesToEven (fp #b1 #b10000000011 #x035916d8ddc80) x7))))
 (let ((?x337 (fp.add roundNearestTiesToEven ?x334 (fp.mul roundNearestTiesToEven (fp #b0 #b10000000010 #xc03e6eda93c94) x8))))
 (let ((?x340 (fp.add roundNearestTiesToEven ?x337 (fp.mul roundNearestTiesToEven (fp #b0 #b10000000100 #xccc321dcf5937) x9))))
 (fp.leq ?x340 (fp #b1 #b10000000101 #x4e5b6767b96ea))))))))))))
(assert
 (let ((?x347 (fp.add roundNearestTiesToEven (fp.mul roundNearestTiesToEven (fp #b0 #b10000000011 #x55d524bf99b9e) x0) (fp.mul roundNearestTiesToEven (fp #b1 #b10000000011 #x254ed6a2cd66e) x1))))
(let ((?x350 (fp.add roundNearestTiesToEven ?x347 (fp.mul roundNearestTiesToEven (fp #b0 #b10000000101 #x3de4f92f66298) x2))))
(let ((?x353 (fp.add roundNearestTiesToEven ?x350 (fp.mul roundNearestTiesToEven (fp #b1 #b10000000010 #xddd0d1efe9d99) x3))))
(let ((?x356 (fp.add roundNearestTiesToEven ?x353 (fp.mul roundNearestTiesToEven (fp #b1 #b10000000011 #x49796d932ab28) x4))))
(let ((?x359 (fp.add roundNearestTiesToEven ?x356 (fp.mul roundNearestTiesToEven (fp #b0 #b10000000101 #x0836c4b23dd0f) x5))))
(let ((?x362 (fp.add roundNearestTiesToEven ?x359 (fp.mul roundNearestTiesToEven (fp #b1 #b10000000101 #x612b424d4f1e4) x6))))
(let ((?x365 (fp.add roundNearestTiesToEven ?x362 (fp.mul roundNearestTiesToEven (fp #b0 #b10000000100 #xf3fed17bbcf62) x7))))
(let ((?x368 (fp.add roundNearestTiesToEven ?x365 (fp.mul roundNearestTiesToEven (fp #b0 #b10000000101 #x8107a1deb7f09) x8))))
(let ((?x371 (fp.add roundNearestTiesToEven ?x368 (fp.mul roundNearestTiesToEven (fp #b0 #b10000000101 #x1ca4dfc167b30) x9))))
(fp.leq ?x371 (fp #b0 #b10000000000 #x43743f8d7c88c))))))))))))
(check-sat)
(exit)
